Instance: Data/Instances_txt/inst_100_30_4.txt
SetUpTime: 347.89890694618225

Gurobi 10.0.1 (mac64[x86]) logging started Mo 14 Aug 09:58:50 2023

Set parameter LogFile to value "Output/MILP_RELAXED_inst_100_30_4_2023-08-14_09-45-28.txt"

Gurobi 10.0.1 (mac64[x86]) logging started Mo 14 Aug 09:58:50 2023

Set parameter LogFile to value "Output/MILP_RELAXED_inst_100_30_4_2023-08-14_09-45-28.txt"
Gurobi Optimizer version 10.0.1 build v10.0.1rc0 (mac64[x86])

CPU model: Intel(R) Core(TM) i5-1038NG7 CPU @ 2.00GHz
Thread count: 4 physical cores, 8 logical processors, using up to 8 threads

Optimize a model with 201 rows, 195993 columns and 2209131 nonzeros
Model fingerprint: 0x013415ed
Coefficient statistics:
  Matrix range     [1e+00, 1e+00]
  Objective range  [1e+00, 1e+04]
  Bounds range     [1e+00, 1e+00]
  RHS range        [1e+00, 1e+00]
Presolve time: 0.61s
Presolved: 201 rows, 195993 columns, 2209131 nonzeros

Concurrent LP optimizer: dual simplex and barrier
Showing barrier log only...

Ordering time: 0.00s

Barrier statistics:
 AA' NZ     : 1.479e+04
 Factor NZ  : 1.942e+04 (roughly 80 MB of memory)
 Factor Ops : 2.442e+06 (less than 1 second per iteration)
 Threads    : 3

                  Objective                Residual
Iter       Primal          Dual         Primal    Dual     Compl     Time
   0   5.06543397e+07  0.00000000e+00  5.12e+03 0.00e+00  1.37e+00     1s
   1   8.19216830e+06 -1.64525528e+04  7.89e+02 4.26e-14  2.17e-01     1s
   2   1.22123174e+05 -1.52270689e+04  8.85e+00 4.26e-14  3.32e-03     1s
   3   3.97140918e+04  2.30041731e+03  1.08e+00 4.26e-14  7.67e-04     1s
   4   2.52709368e+04  1.24231100e+04  8.04e-02 5.68e-14  2.52e-04     1s
   5   2.26982183e+04  1.44803342e+04  2.52e-02 4.26e-14  1.62e-04     1s
   6   2.19380327e+04  1.55367502e+04  1.68e-02 5.68e-14  1.26e-04     1s
   7   2.12062753e+04  1.65177589e+04  1.10e-02 5.68e-14  9.24e-05     2s
   8   2.09561937e+04  1.70320121e+04  9.74e-03 3.91e-14  7.72e-05     2s
   9   1.95382010e+04  1.75475148e+04  2.67e-03 5.68e-14  3.94e-05     2s
  10   1.90967154e+04  1.77423596e+04  1.73e-03 4.26e-14  2.68e-05     2s
  11   1.88527990e+04  1.78131670e+04  1.30e-03 4.97e-14  2.06e-05     2s
  12   1.86705614e+04  1.78396640e+04  9.53e-04 4.97e-14  1.64e-05     2s
  13   1.84138892e+04  1.79185453e+04  5.61e-04 2.84e-14  9.80e-06     2s
  14   1.81445477e+04  1.79301252e+04  1.75e-04 3.55e-14  4.25e-06     2s
  15   1.80894546e+04  1.79510583e+04  1.12e-04 3.20e-14  2.74e-06     2s
  16   1.80545843e+04  1.79580489e+04  7.89e-05 4.26e-14  1.91e-06     2s
  17   1.80156664e+04  1.79647872e+04  3.96e-05 3.55e-14  1.01e-06     2s
  18   1.80057214e+04  1.79681919e+04  3.01e-05 2.84e-14  7.44e-07     2s
  19   1.80008463e+04  1.79699861e+04  2.55e-05 5.33e-14  6.12e-07     2s
  20   1.79844942e+04  1.79713703e+04  1.06e-05 4.26e-14  2.60e-07     3s
  21   1.79751827e+04  1.79722781e+04  2.13e-06 3.20e-14  5.76e-08     3s
  22   1.79741790e+04  1.79724446e+04  1.34e-06 6.39e-14  3.44e-08     3s
  23   1.79726084e+04  1.79725292e+04  4.92e-08 4.97e-14  1.57e-09     3s
  24   1.79725395e+04  1.79725385e+04  5.57e-10 5.68e-14  1.84e-11     3s
  25   1.79725386e+04  1.79725386e+04  2.58e-09 4.97e-14  1.23e-12     3s

Barrier solved model in 25 iterations and 2.87 seconds (2.65 work units)
Optimal objective 1.79725386e+04

Crossover log...

      82 DPushes remaining with DInf 0.0000000e+00                 3s
       0 DPushes remaining with DInf 0.0000000e+00                 3s

      88 PPushes remaining with PInf 0.0000000e+00                 3s
       0 PPushes remaining with PInf 0.0000000e+00                 3s

  Push phase complete: Pinf 0.0000000e+00, Dinf 2.8197444e-12      3s


Solved with barrier
Iteration    Objective       Primal Inf.    Dual Inf.      Time
     171    1.7972539e+04   0.000000e+00   0.000000e+00      3s

Solved in 171 iterations and 3.19 seconds (2.84 work units)
Optimal objective  1.797253858e+04

User-callback calls 505, time in user-callback 0.00 sec

=========================

OUTPUT STATISTICS
Relaxed: true
Time since start: 376.75068712234497
SetUpTime: 347.89890599250793
Objective value LB: 17972.53858175606
Objective value UB: 18936.0
Solving time LB: 7.978949069976807
Solving time UB: 9.336087942123413
Gap: 0.050879880557876005
